Route #1: 7 8 9 10 11 12 13 14 15 17 19 20 21 22 23 24 25 26 27 28 29 30
Route #2: 39 38 37 36 35 34 33 32 31 71 70 69 68 67 66 65 64 63 62 61 60 59 58 18
Route #3: 5 6 46 47 48 49 50 51 52 53 54 55 95 94 93 92 91 90 89 88 87 86 85 45 44 4 3
Route #4: 1 40 80 79 78 77 76 75 74 73 72 112 111 110 109 108 107 106 105 104 103 102 101 100 99 98 97 57 56 16
Route #5: 42 82 81 120 119 118 117 116 115 114 113 153 154 155 156 157 158 159 160 121 122 123 162 163 164 165 124
Route #6: 139 138 178 179 180 181 182 183 184 185 186 187 188 189 190 191 192 193 194 195 196 197 198 199 200 161 41
Route #7: 128 129 130 131 132 133 134 135 175 174 173 172 171 170 169 168 167 166 127 126 125 84 83 43 2
Route #8: 151 152 232 233 234 235 236 237 238 239 240 201 202 203 204 205 206 207 208 209 210 211 212 213 214 215 216 176 136
Route #9: 140 141 142 143 144 145 146 147 148 149 150 231 230 229 228 227 226 225 224 223 222 221 220 219 218 217 177 137 96
Cost 5630
